28
161	1000	698	691	690	689	686	681	676	675	674	666	662	660	653	652	651	649	641	636	635	634	629	628	626	624	621	620	616	611	610	603	602	600	596	590	587	585	578	577	572	569	566	561	559	555	548	545	541	539	538	534	532	531	529	527	521	519	499	497	496	495	483	480	478	475	471	461	460	459	458	444	435	432	426	423	420	414	411	392	391	390	386	385	381	378	376	365	353	341	335	332	331	325	317	316	315	304	303	300	298	297	292	282	281	268	262	251	246	230	227	216	214	201	197	194	190	189	188	183	181	179	176	173	169	168	167	160	159	156	151	144	130	128	126	124	122	110	107	100	96	95	88	85	84	83	79	76	73	72	69	65	62	56	55	51	47	36	32	30	29	28	1	1	1	1	1	1	1	1	1	1	1	1	1	1	1	2	1	1	1	1	1	1	2	1	1	3	1	1	1	1	1	1	2	2	1	1	1	1	1	1	1	1	1	1	1	1	1	1	1	1	2	1	1	1	1	1	1	1	1	1	2	1	1	1	1	1	1	1	1	1	1	1	1	1	2	1	2	1	2	1	1	1	1	1	1	1	1	1	1	1	1	1	1	1	1	1	1	1	1	1	1	2	1	1	1	1	1	1	1	1	1	1	2	1	1	1	1	1	1	1	1	1	1	2	1	1	1	1	1	1	1	1	1	1	1	1	1	1	1	2	1	1	2	1	1	3	1	1	1	1	1	1	1	1	1	1	2	1	1	1	1	1
136	1000	696	686	683	675	674	670	669	668	665	663	662	657	653	649	641	632	627	622	621	620	619	614	612	608	606	605	603	599	598	597	595	593	575	566	558	556	551	544	521	518	514	505	499	496	494	491	490	484	480	474	473	466	462	457	448	430	429	423	419	408	405	403	399	390	389	387	383	382	381	378	370	364	359	358	341	340	339	335	328	323	321	320	318	305	303	293	290	286	283	273	268	263	252	239	231	230	228	224	221	211	210	209	208	205	197	193	185	184	182	173	166	142	133	123	120	115	109	95	92	77	72	69	59	57	45	40	39	32	31	29	28	24	22	18	17	11	1	2	1	1	1	2	1	1	1	2	1	1	1	2	1	2	1	1	1	1	2	1	1	1	1	1	2	2	1	2	1	1	1	1	1	1	1	2	1	1	2	1	1	1	1	2	1	1	1	1	2	1	2	1	1	2	1	1	1	1	1	1	1	1	1	1	1	1	1	1	1	1	2	1	1	1	1	2	1	1	1	1	1	1	2	1	1	1	1	1	1	1	1	1	1	1	1	2	1	2	1	1	1	1	1	2	1	1	1	1	1	1	1	1	2	1	1	1	1	1	1	1	1	1	1	1	1	1	1	1	1	1	3	1	1	1
144	1000	789	787	786	781	777	774	773	770	763	757	753	748	727	726	716	707	703	700	695	681	676	675	664	661	654	649	645	639	626	620	613	612	605	601	589	586	577	562	561	548	536	523	511	500	498	493	488	484	483	482	478	464	461	458	438	436	434	431	420	419	416	415	414	413	410	400	393	385	373	372	369	351	342	321	320	317	313	307	301	300	299	288	275	270	267	260	257	256	253	248	237	234	227	216	214	208	202	192	191	188	173	169	164	160	155	151	145	140	131	130	127	124	117	116	108	107	106	97	94	92	86	80	77	76	75	73	70	67	62	59	54	53	50	49	48	46	41	40	32	29	28	27	24	19	1	1	1	1	1	1	1	1	2	1	1	1	1	1	1	1	1	1	1	1	2	2	1	1	2	1	1	1	1	1	1	1	2	1	1	1	1	1	1	1	1	1	1	1	2	1	1	2	1	1	1	1	2	1	1	1	1	1	1	1	1	1	1	1	1	1	1	1	2	1	1	2	1	1	2	1	1	1	1	1	1	1	1	1	1	1	1	1	2	1	1	1	1	1	1	1	1	1	1	1	1	1	1	1	1	1	1	1	1	1	1	1	1	1	2	1	1	1	1	1	1	1	1	1	1	2	1	1	1	1	1	1	2	1	1	1	1	2	1	1	1	1	1	1
158	1000	783	782	780	774	768	764	757	753	751	750	748	743	718	713	712	706	705	695	688	686	685	684	675	674	673	671	666	665	647	641	638	637	634	629	613	604	600	599	593	588	584	570	569	567	565	556	552	549	548	545	544	538	525	524	523	505	504	501	496	493	490	487	486	485	481	476	471	470	468	463	460	457	454	444	443	439	438	436	434	431	426	422	419	412	395	380	366	354	340	334	324	323	320	317	316	309	301	299	290	288	286	272	271	264	253	239	231	226	214	204	189	184	177	174	172	169	168	163	160	152	149	144	142	137	135	123	122	121	120	113	109	108	106	105	103	100	98	97	94	92	90	86	84	74	66	64	59	56	54	51	46	43	40	38	36	16	14	3	2	1	1	2	1	1	1	1	1	1	1	2	1	1	1	1	1	1	1	1	1	1	1	2	1	1	2	1	1	1	2	1	1	1	2	1	1	1	1	1	1	1	2	1	1	1	1	1	1	1	1	1	1	2	1	1	1	1	1	1	1	1	1	1	1	1	1	1	1	1	1	1	1	1	3	1	1	1	1	1	1	1	1	1	1	1	1	1	1	1	2	1	1	1	1	1	1	1	1	1	1	1	1	1	2	2	3	2	2	1	1	1	1	1	1	2	1	1	1	1	1	1	1	1	1	1	1	1	2	1	1	1	1	1	1	1	1	1	1	1	2	1	1	1	1	1	1	1	1	1	1	1	1	1	1	1	2	1
144	1000	696	690	687	681	679	678	677	676	675	665	658	651	650	645	644	642	640	636	635	631	630	629	616	610	609	607	598	596	595	589	579	578	574	571	570	559	556	555	553	551	545	536	534	530	522	514	510	503	501	496	493	491	488	487	482	476	471	470	465	460	456	455	454	451	444	442	440	439	436	435	434	428	427	424	420	408	403	394	391	385	382	377	374	365	357	355	341	329	328	327	318	312	300	297	294	291	290	284	281	277	265	257	248	245	244	242	236	230	227	225	201	196	191	172	165	164	160	158	157	154	146	145	141	139	136	128	126	123	120	116	111	109	108	105	101	90	88	85	80	77	72	65	64	53	1	1	1	1	2	1	1	1	1	1	1	2	1	2	1	1	2	1	1	1	1	1	1	1	1	1	1	1	1	1	1	1	1	1	1	1	1	1	1	1	1	1	1	2	1	1	1	1	1	1	2	1	1	1	1	1	1	1	1	1	1	1	2	1	1	1	1	1	1	1	1	1	1	1	1	1	2	1	1	1	1	2	1	1	2	1	1	1	2	1	1	1	1	1	1	1	1	1	1	2	1	1	1	1	1	1	1	1	1	1	1	1	1	1	1	1	1	1	1	1	1	2	1	1	1	1	1	2	1	1	1	1	1	2	1	1	2	1	1	1	1	1	1	1
173	1000	697	695	693	690	687	686	685	683	682	681	680	676	674	673	671	670	668	665	648	644	640	635	627	625	624	620	618	616	611	609	608	603	602	598	588	579	577	572	565	564	563	559	544	543	542	541	530	527	523	521	515	509	508	507	499	498	491	483	470	464	460	459	455	453	446	444	436	433	430	429	428	425	422	418	413	409	406	404	402	401	400	399	398	385	382	381	379	371	364	354	353	342	336	335	331	329	323	322	315	314	311	309	308	307	303	296	287	284	275	274	273	272	269	266	265	262	250	248	246	244	240	239	234	226	225	217	207	205	194	193	190	189	187	185	181	177	174	173	172	170	161	159	155	154	151	140	138	133	132	114	113	111	109	101	99	97	94	92	90	80	77	69	68	67	64	62	51	39	36	21	17	14	2	1	1	2	1	1	1	1	1	1	1	1	2	1	2	1	1	1	1	1	1	2	1	1	1	1	1	1	2	1	3	1	1	1	1	1	2	3	1	1	1	1	2	1	1	1	1	1	1	1	1	1	1	2	1	3	1	1	1	1	1	1	1	1	1	2	2	1	1	1	1	1	1	1	2	1	1	1	1	1	1	1	1	1	1	1	1	1	1	2	1	1	1	1	1	1	1	1	1	1	1	2	1	1	1	1	1	2	1	1	1	1	1	1	1	1	1	1	1	1	1	1	1	1	2	1	2	2	1	1	1	1	2	1	1	1	1	1	1	1	2	1	1	1	1	1	1	1	1	1	1	1	1	1	1	2	2	1	1	1	1	1	1	1	1	1	1	1	1	1	1	1	1	1
173	1000	699	696	694	693	692	691	690	689	688	682	681	679	673	671	664	662	661	655	652	649	646	640	638	618	617	602	590	587	586	584	582	568	567	563	560	558	553	548	539	536	532	529	526	522	521	517	516	514	513	510	507	505	502	498	495	493	491	485	482	477	475	474	465	456	454	453	450	442	441	440	439	437	434	424	422	419	415	407	404	401	399	395	393	391	386	384	382	381	368	354	353	348	344	343	336	328	324	321	319	304	302	301	300	296	295	284	281	280	279	275	271	267	260	257	253	248	245	243	239	238	237	233	226	225	222	218	217	216	212	211	206	204	201	197	189	188	187	186	181	176	173	167	165	163	158	153	146	142	135	127	126	124	119	115	114	107	105	104	96	94	79	61	55	54	44	33	31	28	18	15	12	11	9	2	1	1	1	1	1	1	1	1	1	1	2	2	1	1	1	1	1	1	1	1	1	1	1	1	1	1	1	2	1	1	1	1	1	1	1	1	1	2	2	2	1	2	1	1	1	1	1	1	1	1	1	1	1	1	1	1	1	1	1	1	1	1	1	1	1	1	1	1	1	1	2	1	1	1	1	1	1	1	1	1	2	1	1	1	1	1	1	1	1	1	1	1	3	2	2	2	1	2	1	1	1	1	1	1	1	1	1	1	2	1	1	1	1	1	1	1	1	1	2	1	1	1	1	2	1	1	2	1	1	1	1	1	1	1	1	1	1	1	1	1	1	1	1	1	1	2	1	1	1	1	1	1	2	1	1	1	1	2	2	1	1	1	1	2	1	1	2	1	2	1	1	1
185	1000	798	793	790	787	772	756	750	749	743	742	737	734	731	726	725	723	717	704	703	696	695	693	689	688	685	682	681	675	673	671	667	647	640	638	637	636	630	629	628	622	620	614	606	605	604	592	591	590	587	582	581	580	579	573	570	568	565	563	561	558	556	551	547	546	540	535	525	522	518	504	501	499	497	495	493	487	482	480	479	476	475	474	473	472	466	465	462	457	453	437	436	435	434	432	431	430	428	423	417	416	408	405	366	365	364	363	362	356	355	352	351	349	346	339	329	314	312	311	310	305	303	292	288	282	281	280	279	275	271	268	256	250	247	243	239	228	222	217	212	208	206	203	202	200	195	194	187	185	178	177	171	165	155	153	152	141	137	135	133	131	130	124	122	117	109	93	76	75	72	67	60	57	53	49	44	41	40	39	27	25	21	19	18	17	5	2	1	1	2	1	1	1	1	1	1	1	1	1	1	2	1	1	1	1	1	1	1	1	1	1	1	1	1	1	2	1	2	1	1	1	1	1	1	1	1	1	1	1	1	1	1	1	1	1	1	1	1	1	2	1	1	1	1	1	1	1	1	1	1	1	1	1	1	1	1	2	1	1	1	1	1	1	1	1	1	1	1	1	2	1	1	1	1	1	1	1	1	1	1	1	1	1	1	2	1	1	1	1	1	1	1	2	1	1	1	2	1	1	1	1	1	1	1	1	1	1	1	2	1	1	1	1	1	1	1	1	1	1	1	1	1	1	1	1	1	1	1	1	1	1	1	1	1	1	3	1	1	1	1	1	1	1	1	1	1	1	1	1	1	1	1	1	1	1	1	1	1	2	1	1	1	1	1	1	1	1	1	1	1	1
178	1000	794	793	790	786	772	764	756	743	742	740	736	732	724	723	713	712	709	704	703	700	699	692	691	678	677	673	667	662	659	658	646	644	640	637	635	633	629	628	625	622	617	613	612	608	605	602	595	583	580	572	568	558	541	535	531	523	521	519	518	517	515	512	509	506	504	494	487	485	482	476	471	469	468	466	462	459	447	446	443	436	431	423	419	416	415	408	407	400	399	396	395	387	371	370	369	365	363	360	355	354	347	346	345	337	336	334	328	321	313	312	292	278	276	275	266	257	254	252	250	249	246	242	240	233	232	226	223	221	220	214	213	212	210	209	208	196	189	185	184	181	179	174	171	170	168	166	164	157	147	146	141	133	123	120	119	116	104	103	102	99	94	93	72	66	61	59	55	51	50	45	44	41	36	21	9	7	4	1	1	1	1	1	1	1	1	1	1	2	2	1	2	1	1	1	1	1	1	1	1	1	2	1	1	1	1	2	1	1	1	1	1	1	1	1	1	1	1	1	1	1	1	2	1	1	2	1	1	1	1	1	1	1	1	1	1	1	3	2	1	1	1	2	1	1	2	1	1	1	1	1	1	1	1	1	1	1	1	1	1	2	1	1	1	1	1	1	1	1	1	1	1	2	1	1	1	1	1	1	1	1	1	1	1	1	1	1	1	1	1	2	1	1	1	1	1	1	2	1	1	1	1	2	1	1	1	1	1	1	1	1	1	1	1	2	1	2	1	1	1	1	1	1	1	1	1	1	1	1	1	1	1	1	1	2	1	1	1	1	1	1	1	1	3	1	1	1	1	1	1	1	1	1	1	1	1	1
157	1000	799	797	793	776	770	758	755	752	750	745	736	733	721	714	713	711	706	703	702	699	697	684	680	679	673	666	665	661	660	659	651	648	646	641	639	629	623	620	615	610	603	597	583	577	572	561	554	548	545	536	532	531	525	523	522	513	503	496	494	481	477	472	471	468	458	457	455	451	436	434	432	429	412	411	407	401	399	397	393	391	387	376	372	368	363	358	354	352	348	342	340	328	327	326	318	317	313	309	307	305	297	296	292	287	281	279	278	276	267	265	257	255	239	229	219	215	214	210	202	201	200	199	197	183	172	171	169	158	144	128	127	123	120	118	109	108	103	101	99	94	82	79	66	65	63	51	45	41	39	36	34	32	30	23	22	20	7	1	1	1	2	1	1	2	1	1	1	1	1	1	2	1	1	1	1	1	1	1	1	1	1	1	2	1	1	1	1	1	1	1	1	1	1	1	1	1	2	2	1	2	1	2	1	1	1	1	1	1	1	2	1	1	1	1	1	1	1	1	1	1	1	1	2	1	1	1	1	1	1	1	1	2	1	1	1	1	1	1	1	2	1	1	1	1	1	1	1	1	1	1	2	1	1	1	1	2	2	1	1	1	1	1	1	2	2	1	1	1	1	1	1	1	1	1	1	1	2	1	1	1	2	1	1	1	1	1	1	1	1	2	1	1	1	1	1	1	1	1	1	2	1	1	2	1	1	1	1	1	1	2	1	1	1	1
161	1000	698	696	695	694	690	686	685	681	675	672	671	670	667	665	660	656	647	645	639	634	622	617	614	610	598	596	592	588	587	586	585	582	575	574	572	558	557	555	550	531	526	523	516	515	514	508	505	498	497	496	495	492	485	481	475	472	468	467	466	465	453	447	446	440	435	433	423	416	415	413	409	399	391	389	388	385	379	377	374	373	372	367	361	359	358	351	346	339	333	327	325	322	320	312	305	298	294	293	291	283	279	274	270	256	252	251	243	240	229	218	216	215	209	205	195	193	189	186	178	170	169	164	162	160	157	152	147	139	137	131	117	112	109	106	105	102	97	95	91	84	83	78	69	68	67	61	58	54	51	44	36	35	26	24	21	20	16	15	12	4	1	1	1	1	1	1	1	1	2	1	1	2	1	1	1	1	1	1	2	1	1	2	1	1	1	1	1	1	1	1	1	1	1	1	1	1	1	1	1	2	1	1	1	1	1	1	1	1	1	2	1	2	1	1	1	1	1	1	1	2	1	1	1	1	1	2	1	1	1	1	1	1	1	1	1	1	1	1	1	1	1	1	1	1	1	1	1	1	1	1	1	2	1	1	1	1	1	1	1	1	2	1	1	1	1	1	1	1	2	1	1	2	1	1	1	1	1	1	1	1	1	1	1	1	1	1	1	1	1	1	1	1	1	1	1	1	2	2	1	1	1	1	1	1	1	1	2	1	1	1	1	2	1	1	2	1	2	1	1	1	1	1
164	1000	798	790	785	779	776	774	769	766	765	764	759	755	752	748	746	738	734	731	713	710	703	699	696	691	690	686	671	670	669	666	663	660	657	647	646	643	638	632	629	623	613	603	602	601	598	597	593	588	574	566	562	554	553	551	541	535	532	529	528	521	519	501	498	483	480	478	477	467	466	464	462	458	456	447	444	441	440	436	427	426	425	424	423	418	413	402	398	389	383	382	379	378	377	372	367	365	360	359	358	353	344	339	336	331	319	318	317	316	299	294	284	283	278	276	275	266	258	255	254	252	247	242	235	232	231	229	228	222	213	212	207	205	196	195	192	184	183	181	164	158	155	149	141	138	136	134	132	124	97	87	83	76	72	71	70	69	58	53	51	38	33	31	28	5	1	2	1	1	1	1	1	1	1	1	1	1	1	1	1	1	1	1	1	3	1	1	1	1	1	1	1	1	1	1	1	1	1	1	1	1	1	1	1	1	1	1	1	1	1	1	1	1	1	1	1	1	2	1	1	1	1	1	1	1	1	1	1	1	1	1	1	1	1	2	1	1	1	1	1	1	1	2	1	1	2	1	1	1	2	1	1	1	1	1	2	1	2	1	1	1	1	1	1	1	1	1	1	1	1	1	1	1	1	1	1	1	1	1	1	1	1	1	1	2	1	1	1	1	1	1	1	1	1	1	1	1	1	2	1	1	1	1	1	1	1	1	1	1	1	1	1	1	1	2	1	1	1	3	2	1	1	1	1	1	1	1	1	1
148	1000	795	794	788	786	780	779	776	768	757	751	746	732	729	724	720	712	701	699	692	683	680	676	674	657	656	653	645	644	642	640	639	637	632	624	622	618	616	603	594	593	588	581	580	577	572	566	563	558	550	548	547	545	540	538	512	508	507	502	500	491	485	481	478	472	465	464	451	450	444	439	430	429	428	411	409	384	380	378	372	371	370	354	351	350	338	330	321	314	306	299	285	284	281	280	275	253	248	234	232	215	212	207	199	195	192	187	185	183	176	172	171	170	168	166	165	162	156	153	141	135	126	125	121	115	110	109	103	100	98	96	91	90	83	72	69	56	55	54	52	51	48	37	36	23	21	20	16	12	1	1	1	1	1	1	1	1	1	1	1	1	1	2	1	1	1	1	1	1	1	1	1	1	1	1	1	1	1	1	1	1	1	1	1	1	1	1	1	1	1	1	1	1	1	1	1	1	1	1	1	1	1	1	1	1	1	1	1	1	1	1	2	1	2	1	1	1	1	1	1	1	1	1	2	1	1	1	1	1	1	1	2	2	1	1	1	1	1	1	1	1	1	1	1	1	1	1	2	1	1	1	1	1	1	1	1	1	1	1	1	1	1	1	1	1	2	1	1	1	1	1	1	1	2	1	1	1	1	1	1	1	1	1	1	1	1	1	1	1	2	1	1	2	1	2	1	1
189	1000	796	792	784	782	780	779	771	770	766	764	755	749	746	745	742	738	728	725	711	709	707	703	696	695	694	689	683	680	679	677	676	674	671	654	650	648	644	641	640	638	637	635	633	625	623	612	602	600	599	590	587	586	581	578	570	568	559	551	545	535	533	528	526	522	520	516	511	510	502	501	498	494	489	480	475	470	467	460	459	452	448	446	442	441	431	430	426	425	421	419	417	416	413	412	405	402	399	397	384	382	380	379	376	374	373	372	360	359	356	346	343	341	336	322	318	317	314	310	308	306	303	299	293	279	275	266	264	258	243	235	234	233	231	224	222	214	210	208	201	200	197	191	190	189	188	185	184	181	178	175	174	173	170	163	155	152	149	143	142	140	135	134	133	130	125	122	113	110	101	96	75	72	65	62	59	58	57	54	44	43	40	38	33	29	26	17	8	7	5	1	1	1	1	1	1	1	1	1	1	1	1	1	1	1	1	1	1	1	1	1	1	2	1	1	1	1	1	1	1	2	1	1	1	1	1	1	1	1	1	1	1	1	1	2	1	1	1	1	1	1	1	1	1	1	1	2	1	1	1	1	1	1	1	1	1	2	1	1	1	1	1	1	1	1	1	1	1	1	1	1	1	1	1	1	1	1	1	1	1	1	1	1	1	1	1	1	1	1	1	1	1	1	1	1	1	1	1	1	1	1	1	1	2	1	1	1	1	1	1	1	1	1	1	1	1	1	1	1	1	2	1	1	1	1	2	1	1	1	1	1	1	1	1	1	1	2	1	1	1	1	1	1	1	1	1	1	1	1	1	1	1	1	1	1	1	1	1	1	1	1	1	1	1	1	2	1	1	1	1	1	2	1	1	1	1	1	1	1
163	1000	800	796	790	788	784	782	780	777	765	759	758	756	752	751	747	742	740	717	713	706	705	702	697	694	693	688	675	661	657	654	651	645	644	639	633	631	627	621	612	607	606	600	594	586	584	581	579	577	574	570	569	559	548	541	540	539	529	523	506	505	504	482	467	455	452	450	446	445	444	423	421	416	414	406	405	404	403	400	396	395	392	380	379	376	359	357	355	351	345	342	338	335	322	317	316	307	305	289	287	286	282	277	276	272	267	266	264	263	258	256	253	249	245	244	243	240	237	226	224	222	218	208	200	197	190	188	182	161	159	149	141	138	132	128	127	126	124	119	117	116	103	91	90	77	70	68	59	58	55	54	47	43	42	28	27	17	14	13	10	9	8	5	1	1	1	1	1	1	2	1	1	2	1	1	1	1	1	1	1	1	1	1	1	1	1	1	1	1	1	1	1	1	2	1	1	1	1	2	1	1	1	1	1	1	2	1	2	1	1	1	1	2	1	1	1	1	1	1	1	1	1	1	1	1	1	1	1	1	2	1	1	2	1	1	1	1	1	2	1	1	1	1	1	1	1	1	1	1	1	1	1	1	1	1	1	1	1	1	1	1	1	1	1	1	1	1	1	1	1	1	1	1	1	1	1	1	1	1	2	2	1	2	1	1	1	1	1	1	1	1	1	1	1	1	1	1	1	1	1	1	1	1	1	2	1	1	2	1	1	2	1	1	1	1	1	1	2	1	1	1	1	1	1	1	1	1
175	1000	798	795	786	782	774	773	770	765	757	753	752	750	740	737	736	729	726	722	718	715	714	711	710	708	707	688	687	681	664	651	650	630	623	622	621	620	619	616	612	608	607	606	605	603	600	593	589	586	585	580	575	567	565	564	563	560	556	555	553	550	542	536	535	527	524	523	515	509	506	504	499	498	497	493	490	489	481	479	466	464	463	462	461	454	452	434	424	423	422	421	420	419	416	415	413	410	405	399	392	391	387	384	382	377	371	364	354	347	346	341	335	333	331	324	317	311	309	308	299	295	293	283	274	270	264	256	254	251	247	244	243	230	227	215	213	209	207	204	200	198	175	144	142	141	138	129	126	124	122	121	112	110	104	92	91	83	81	79	76	75	69	68	64	53	52	50	47	37	24	23	18	14	10	9	7	1	1	1	1	2	1	1	1	1	1	1	1	1	2	1	1	1	1	1	1	1	1	1	1	1	1	1	1	1	1	1	2	1	1	2	1	2	1	1	1	2	1	1	1	1	1	1	1	1	1	1	1	1	1	1	1	1	1	2	3	1	2	1	1	1	1	1	1	1	1	1	2	1	1	1	1	1	1	1	1	1	2	1	1	1	1	1	1	1	1	1	1	1	1	1	1	1	1	1	1	1	1	1	3	2	1	2	1	2	1	1	1	1	1	2	1	1	1	1	1	1	1	1	1	1	1	1	1	1	1	1	1	2	1	1	1	1	2	1	1	1	1	1	1	1	1	1	1	1	2	1	1	1	1	1	1	2	1	2	1	2	1	1	1	1	1	1	1	2	1	1	1	1	1	1
177	1000	700	699	697	693	692	688	684	681	672	670	669	666	665	661	656	654	652	650	647	638	631	628	626	625	624	621	617	614	607	603	598	595	592	588	584	581	580	553	552	543	542	540	539	537	529	527	525	521	520	519	513	508	500	499	494	491	481	472	468	463	462	456	454	453	452	451	450	449	448	442	439	429	427	421	419	413	412	406	398	388	375	366	364	361	353	352	351	348	347	344	342	338	336	334	331	329	321	319	318	317	314	313	304	303	302	293	292	282	281	280	276	266	260	259	258	256	253	252	241	231	229	226	225	216	214	211	201	200	198	197	195	193	190	186	185	179	176	170	169	168	158	153	148	142	140	139	138	135	134	133	131	130	124	116	114	111	106	104	102	101	99	89	88	86	85	78	69	63	47	45	32	23	22	17	10	3	1	1	1	1	1	1	1	1	1	2	1	1	2	1	1	1	1	1	1	1	1	1	1	1	1	1	1	1	2	1	2	1	1	1	1	1	1	1	1	1	1	1	1	1	2	1	1	1	1	1	1	1	2	1	1	1	1	1	2	1	2	1	1	1	1	1	1	1	1	1	1	1	1	1	1	2	2	1	1	1	2	1	1	1	1	1	1	1	1	1	1	1	1	1	1	2	1	1	1	1	1	1	2	2	1	1	1	1	1	1	1	1	1	2	1	1	1	1	1	1	1	1	2	1	1	1	1	1	1	1	1	1	1	1	1	2	1	1	1	1	2	1	1	1	1	1	1	1	3	1	1	1	1	1	1	1	1	1	1	1	1	1	3	1	1	1	1	1	1	1	2	1	1	1	1	1	1	1
165	1000	800	784	783	779	777	776	773	769	766	763	758	757	748	742	740	730	728	726	720	719	715	714	707	703	697	694	680	672	671	666	663	658	656	654	653	639	637	636	634	619	615	614	612	606	604	600	596	590	585	581	580	578	576	568	566	564	551	549	542	540	531	530	508	505	499	495	494	487	485	482	472	470	469	468	456	450	447	428	421	409	402	397	394	384	383	373	371	370	366	364	361	354	350	344	342	341	321	315	314	308	306	297	296	295	285	284	269	267	262	261	254	251	246	244	240	238	237	232	222	221	220	219	217	205	199	198	196	195	193	191	182	180	177	176	168	157	156	152	151	146	145	124	123	122	103	99	92	90	86	78	69	68	66	65	62	58	55	46	39	33	25	22	20	15	12	1	1	1	1	1	1	1	1	2	1	2	1	1	1	1	1	1	1	1	1	1	1	1	1	1	1	1	1	1	1	1	1	2	1	1	1	2	1	1	1	1	1	1	2	1	1	1	1	1	1	1	1	1	1	1	1	1	1	2	1	1	2	1	1	1	1	1	1	1	1	1	2	1	1	1	1	1	1	1	1	1	1	1	1	1	1	1	1	1	2	1	1	1	1	1	2	1	1	1	1	1	1	1	1	1	1	1	1	2	1	1	1	1	2	1	1	1	1	1	1	1	1	1	1	1	1	1	1	1	1	1	1	1	1	1	1	2	1	1	1	1	1	1	1	1	2	1	1	2	1	1	1	1	1	1	1	1	1	1	1	1	1	1	1	1
141	1000	793	791	771	755	752	750	748	746	723	720	709	695	694	682	680	678	659	650	649	637	630	616	608	600	599	598	597	592	591	578	577	571	567	556	540	536	532	527	525	515	512	511	504	501	500	498	494	469	466	460	456	455	452	449	439	429	423	416	414	407	406	405	403	400	398	394	384	383	381	376	374	370	368	367	362	361	360	349	325	320	316	309	308	303	299	291	288	284	282	276	275	255	246	242	235	224	214	210	198	189	175	174	173	151	145	143	137	136	135	129	125	116	113	110	105	102	96	92	87	82	78	74	61	60	54	53	49	47	40	39	34	31	27	22	19	13	11	9	6	5	3	1	1	1	1	1	1	2	1	1	1	1	1	1	1	2	1	1	1	1	2	1	1	1	1	1	1	1	1	2	1	1	1	1	1	1	1	1	1	1	1	2	1	1	2	1	1	1	1	1	1	1	1	1	1	1	1	2	1	1	1	1	1	1	1	2	1	1	1	1	1	2	2	1	1	2	1	1	1	1	2	1	1	1	1	1	1	2	1	1	1	1	1	1	1	1	1	1	1	1	2	2	1	1	1	1	1	1	2	1	2	1	1	1	1	2	1	1	1	1	1	1	2	1	1	1	1	1	1	1	1	1	1	1	1	1	1	1	1	1	1	1
160	1000	697	688	687	682	680	677	676	673	671	664	663	661	650	646	644	636	630	626	624	616	608	607	606	601	599	593	585	584	579	578	573	572	570	566	565	555	552	543	540	535	532	530	528	525	517	516	514	512	511	509	508	506	499	498	491	489	481	475	474	470	465	464	455	454	453	444	443	439	432	428	425	423	421	420	414	410	409	407	405	400	398	395	393	390	379	372	368	364	361	357	356	346	343	341	339	334	328	326	325	323	321	310	308	306	304	301	299	292	288	281	275	274	272	270	267	264	253	228	226	222	211	203	202	198	189	183	180	178	177	172	170	168	155	153	152	145	139	137	135	118	116	113	106	105	98	88	77	76	67	63	60	50	46	45	44	38	27	16	14	9	1	1	1	1	1	1	1	1	1	1	1	1	1	1	1	1	1	1	1	1	2	1	1	1	1	1	1	1	1	2	1	1	1	2	1	1	1	2	1	1	2	1	1	1	1	1	1	1	1	1	1	1	1	1	1	1	1	1	1	1	1	1	1	1	1	1	1	2	1	1	1	1	1	2	1	1	1	1	1	2	1	1	1	1	1	1	1	1	1	1	1	1	1	1	1	1	1	1	1	1	1	2	1	1	1	1	1	1	2	1	1	1	1	2	1	1	1	1	1	2	1	1	3	2	2	1	1	1	1	1	1	1	1	1	1	1	1	1	1	1	1	1	1	2	1	1	1	3	1	1	1	1	2	1	1	1	1	1	1	1
158	1000	799	791	786	781	776	771	768	767	764	755	750	749	748	747	743	738	735	734	724	721	720	705	704	703	701	698	697	692	689	685	677	672	670	667	665	650	645	637	631	627	625	623	615	606	605	601	592	586	584	582	581	578	577	573	566	555	553	546	545	544	540	533	529	523	518	517	505	500	491	486	465	461	458	447	440	439	438	436	433	431	428	415	411	406	392	390	389	386	385	384	382	381	376	375	372	368	355	350	349	348	335	329	328	326	325	321	313	295	293	292	278	275	272	258	257	256	252	251	250	243	222	220	218	217	216	199	193	192	164	154	153	146	142	132	131	127	125	120	119	106	104	90	79	74	67	66	63	55	50	49	47	29	22	21	15	13	9	6	1	1	2	1	1	1	1	1	1	1	1	1	1	2	1	1	1	1	1	1	1	1	1	1	1	1	1	1	1	1	1	1	2	1	1	1	1	1	1	1	1	1	1	1	1	1	1	1	1	1	1	2	1	1	1	1	1	1	1	1	1	1	1	1	1	1	1	2	1	2	1	2	2	1	1	1	1	1	1	1	1	2	2	1	1	1	2	1	1	1	1	1	1	1	1	1	1	1	2	1	1	1	1	1	1	1	1	1	1	2	2	1	1	1	1	1	1	1	1	1	1	1	1	1	1	1	1	1	1	1	1	1	1	1	2	1	2	1	1	1	3	1	1	1	1	1	1	1	1	2	1	2	1	2	1	1	1	2
148	1000	800	796	788	777	774	773	769	753	751	748	741	736	731	726	717	716	714	708	707	699	693	690	689	688	683	681	679	667	659	656	651	649	644	630	629	615	599	584	564	561	558	552	531	526	525	523	518	517	515	513	512	503	502	500	499	498	493	487	484	476	470	462	453	449	448	446	440	439	438	434	433	431	424	410	405	404	403	378	377	372	369	366	360	358	356	345	332	321	320	308	294	291	290	285	282	273	269	263	260	258	252	238	237	234	226	225	218	211	200	196	195	191	179	173	169	158	153	148	146	142	137	136	132	131	123	120	117	106	102	100	98	94	91	89	88	75	74	68	48	46	45	39	29	28	27	21	15	12	1	1	1	1	1	1	1	1	1	1	1	1	1	1	1	1	1	1	1	1	1	2	1	1	1	3	1	1	1	1	1	1	1	1	1	1	1	1	1	1	1	1	1	1	1	1	1	1	1	1	1	3	1	2	1	1	2	1	1	1	1	1	1	1	1	1	1	1	1	1	1	2	1	1	1	1	1	1	1	1	1	1	1	1	1	1	1	1	1	1	1	1	1	1	1	1	1	1	2	1	1	1	1	1	1	1	1	1	1	2	1	1	1	1	1	1	1	1	1	1	1	1	1	1	1	1	1	1	1	1	1	1	1	1	2	1	1	1	1	1	2	1	1	1	1	1	1	1
143	1000	800	798	788	758	755	754	752	747	742	734	731	726	722	717	716	704	699	698	695	682	671	670	669	668	667	650	645	644	643	634	630	621	617	610	588	585	574	569	548	544	541	537	519	516	506	501	498	496	495	489	483	473	469	464	460	458	449	443	440	437	436	430	427	424	423	419	411	410	408	402	401	388	378	374	373	372	370	367	365	358	355	345	341	339	338	324	320	316	305	302	291	283	275	268	266	262	249	247	245	236	234	232	231	230	228	220	216	205	201	197	194	193	190	187	175	166	164	141	138	135	123	121	116	111	101	99	87	86	77	75	73	70	66	62	54	53	51	47	43	40	27	17	12	2	1	1	1	1	1	1	1	1	1	1	1	1	1	1	1	1	1	1	1	1	1	1	1	1	1	1	1	1	1	2	1	1	1	1	1	1	1	1	1	1	1	1	1	1	1	2	1	1	1	1	1	1	1	1	1	1	1	1	1	1	1	1	2	2	1	1	2	2	1	1	1	1	1	1	1	1	1	1	2	1	1	1	1	2	1	1	2	1	1	2	1	1	1	1	1	2	1	1	1	1	1	1	1	2	1	1	1	1	1	1	1	2	1	1	1	1	1	1	1	1	1	1	1	1	2	1	1	1	1	1	1	2	2	1	1	1	1	1	1	1	1	1
174	1000	700	698	691	687	682	679	677	667	666	663	654	653	652	648	646	645	644	639	631	630	628	627	626	624	619	611	610	608	603	599	598	595	592	586	579	568	567	562	557	556	554	553	550	543	541	535	534	533	532	531	527	524	520	519	518	517	515	510	509	508	498	492	479	477	473	469	465	463	457	451	447	437	432	419	418	415	407	405	403	400	393	391	390	388	363	357	354	350	348	347	342	339	333	330	325	321	308	303	301	300	285	281	277	274	271	270	268	258	256	253	250	248	244	229	223	221	220	218	210	209	208	206	196	193	188	186	185	177	172	167	160	157	149	148	147	145	144	143	130	128	125	120	118	105	100	99	98	96	94	92	89	86	85	83	80	73	69	63	62	55	53	52	42	39	33	22	20	19	15	10	9	8	6	3	1	1	1	1	1	1	1	2	1	1	2	3	1	1	1	1	1	1	2	1	1	1	1	1	1	1	1	1	1	1	1	1	1	1	1	1	1	1	1	1	2	2	1	1	1	2	1	1	1	2	1	1	1	1	1	1	1	1	1	1	1	1	1	1	1	1	1	2	1	1	1	1	1	1	1	1	1	1	1	2	1	1	2	2	1	1	1	1	1	1	1	1	1	1	1	1	1	3	1	1	1	1	1	1	1	1	1	1	2	1	1	1	1	1	1	1	1	2	1	1	1	2	1	1	1	1	3	1	1	1	1	1	1	1	1	1	2	1	1	1	1	1	1	1	1	1	1	1	1	1	1	1	1	1	1	1	3	1	1	1	1	1	1	1	1	1	2	2	1	1	1	1	1	2
163	1000	699	694	692	684	682	680	679	674	668	667	665	663	650	649	647	646	645	644	638	634	630	627	623	614	609	606	603	599	596	592	588	587	585	579	572	571	569	564	562	557	556	555	552	548	546	545	542	537	531	528	527	525	521	520	518	516	511	506	500	498	495	487	479	478	469	460	455	450	449	447	444	443	438	435	433	426	425	423	419	414	411	404	403	396	395	393	389	386	376	362	360	358	356	350	347	336	332	319	318	315	311	310	309	308	300	280	275	274	263	259	257	251	249	237	225	217	206	203	198	195	192	190	185	184	179	175	167	163	159	154	152	149	141	140	129	127	125	122	112	111	109	107	102	89	88	87	85	77	75	68	62	55	51	48	42	41	37	36	34	28	25	6	5	1	1	3	1	1	1	1	1	1	1	1	1	1	1	1	1	1	1	1	1	1	2	1	1	1	1	1	1	1	1	1	1	1	1	1	1	1	1	1	2	2	1	1	1	1	1	1	1	1	1	1	1	1	1	1	1	1	2	1	1	1	1	1	1	1	1	1	1	1	1	1	1	1	1	1	1	1	1	2	1	1	1	1	1	2	1	1	1	1	1	1	1	1	1	1	1	1	1	1	1	2	3	1	1	2	1	1	1	1	1	1	1	1	1	1	2	2	1	1	1	1	1	1	1	1	1	1	1	2	1	1	1	1	1	1	1	1	2	1	1	1	1	1	1	1	1	1	1	2	1	1	1	1	1	1	1	1	1	1	1	1	1	1
179	1000	794	793	792	790	788	787	784	780	779	776	774	772	770	767	762	758	756	753	750	747	740	729	728	724	719	710	702	693	690	686	682	669	662	656	655	653	641	637	634	633	631	628	626	625	621	610	605	600	590	583	579	578	568	567	563	562	559	552	549	548	546	542	540	533	529	524	522	521	511	500	499	492	489	486	483	466	465	463	455	451	445	431	426	424	411	410	405	404	388	379	366	364	362	361	350	348	345	344	335	327	323	321	319	315	313	312	300	296	286	285	280	277	269	267	266	262	261	243	234	232	230	228	225	219	217	215	214	208	207	202	199	195	193	186	183	180	178	176	174	173	172	168	163	161	159	158	150	148	140	138	133	126	117	116	115	111	109	106	100	97	94	92	90	84	72	71	66	53	51	49	41	40	31	28	10	7	5	3	1	1	1	1	1	1	1	1	1	1	1	1	1	1	1	1	1	2	1	1	1	2	1	1	1	2	1	2	1	1	1	1	1	1	1	1	1	1	1	1	2	1	1	1	1	1	1	1	1	1	1	1	2	1	1	1	2	1	1	1	1	2	1	1	1	1	1	1	2	1	1	1	2	1	1	1	2	1	1	1	1	2	1	1	1	1	1	1	1	1	2	1	1	1	1	1	1	1	1	1	2	1	1	2	1	1	1	1	1	1	1	1	1	1	1	1	1	1	2	1	1	1	1	1	1	1	1	1	1	1	1	1	1	1	2	1	1	1	1	1	1	2	1	1	1	1	1	2	1	1	1	1	1	1	1	1	1	1	1	1	1	1	1	1	1	2	2	1	1	1	1	1	1	1	1	1	1	1	1	1
139	1000	696	694	689	683	680	678	674	672	670	669	668	666	664	661	646	645	642	639	627	607	606	600	597	595	585	577	575	573	572	569	546	539	534	528	523	522	507	502	501	492	484	478	470	467	464	458	454	453	449	447	446	434	432	430	429	428	426	421	416	412	405	403	402	400	391	389	387	383	382	379	377	374	365	364	362	354	348	346	345	340	338	337	331	329	318	315	306	304	301	299	288	287	285	283	270	266	262	261	259	255	254	249	246	245	232	229	214	213	207	204	196	187	186	178	170	159	155	152	138	128	126	123	118	117	115	111	98	93	91	89	87	76	68	64	55	15	14	9	6	1	1	2	1	1	1	1	1	1	1	1	1	1	1	2	1	1	1	1	1	1	1	1	2	1	1	1	1	1	1	1	1	2	1	1	2	2	2	3	1	2	1	1	1	1	1	1	1	1	1	1	1	1	2	1	1	1	1	1	1	1	1	1	1	1	1	1	1	2	1	1	1	1	1	1	1	1	1	1	1	1	1	1	1	1	2	1	1	1	1	1	2	1	1	1	1	1	1	2	1	1	1	1	1	2	1	1	1	1	1	2	1	1	1	1	1	1	1	2	1	1	1	2	1	1	2	1	1	1	1	1	1	1	1	1	2	1	1	1
173	1000	699	698	695	693	677	665	663	658	656	654	647	644	643	639	638	636	630	622	618	613	610	608	599	598	597	592	591	587	584	580	577	576	570	566	565	564	561	558	556	553	550	542	539	535	533	532	531	529	528	526	525	523	519	512	506	500	494	491	490	486	485	484	482	475	472	460	458	436	435	433	430	428	427	426	423	415	409	407	404	402	398	396	395	392	388	384	373	372	356	355	353	352	345	332	329	318	316	315	307	306	292	289	288	287	286	285	283	282	280	279	272	268	263	261	256	250	246	245	244	243	237	233	223	214	213	212	211	208	203	199	191	186	184	176	175	166	158	157	153	146	144	143	142	135	131	123	122	120	119	115	114	111	107	105	101	99	95	91	84	67	65	47	45	38	32	30	13	11	10	8	7	6	4	1	1	3	1	1	1	1	1	1	1	1	1	2	1	1	1	1	1	1	3	1	1	2	1	3	1	1	2	1	1	1	1	1	1	2	1	1	1	1	1	1	2	1	1	1	1	2	1	2	1	1	1	2	1	1	1	3	1	1	1	1	1	2	1	1	1	1	1	1	1	1	1	1	1	1	1	1	1	1	1	1	1	1	1	1	1	1	1	2	1	1	1	1	2	1	1	1	1	2	1	1	1	1	1	1	2	2	1	1	1	1	1	1	1	1	2	1	1	1	1	1	1	1	1	1	1	2	1	1	1	1	1	1	1	1	1	1	1	1	1	1	2	1	1	1	2	1	2	1	1	1	1	1	1	1	1	1	1	1	1	1	1	1	1	1	1	1	1	1	1	1	1	1
